25
25
1
3
3600
504 504 622 690 802 1010 1020 1098 1291 1298 1403 1508 1691 1797 1912 2071 2119 2136 2171 2354 2359 2451 2561 2806 2866 
12 23 6 17 20 29 7 16 9 35 28 12 18 14 11 31 20 35 10 31 25 30 12 8 8 
